c --- [ banner ] -------------------------------------------------------------
c 
c CaDiCaL Radically Simplified CDCL SAT Solver
c Copyright (c) 2016-2021 A. Biere, M. Fleury, N. Froleyks
c 
c Version 1.5.2 a5f15211db36c3956764e18194dd5bd63bf3b5e6
c g++ (GCC) 9.3.0 -Wall -Wextra -O3 -DNDEBUG
c Fri Oct 21 01:27:37 EDT 2022 Linux gra-login3 3.10.0-1160.66.1.el7.x86_64 x86_64
c 
c --- [ limit ] --------------------------------------------------------------
c 
c setting conflict limit to 200000 conflicts (due to '200000')
c 
c --- [ parsing input ] ------------------------------------------------------
c 
c reading DIMACS file from '33.cubes2682.adj'
c opening file to read '33.cubes2682.adj'
c found 'p cnf 6160 1595476' header
c parsed 1595476 clauses in 17.90 seconds process time
c closing file '33.cubes2682.adj'
c after reading 1457566781 bytes 1390.0 MB
c 
c --- [ options ] ------------------------------------------------------------
c 
c all options are set to their default value
c 
c --- [ solving ] ------------------------------------------------------------
c 
c time measured in process time since initialization
c 
c  seconds    reductions  redundant   irredundant
c          MB     restarts       trail       variables
c            level   conflicts       glue         remaining
c 
c * 17.90 1378  0 0   0    0    0  0% 0 1595422 2379 39%
c { 19.22 1433  0 0   0    0    0  0% 0 1595422 2379 39%
c i 20.31 1464 1191 0   0   14   13 43% 3 1595422 2378 39%
c i 22.32 1498 335 0   7   72   56 29% 24 1595422 2377 39%
c i 22.75 1500 291 0  12   90   73 29% 32 1595422 2376 39%
c i 22.89 1500 277 0  13   98   80 29% 34 1595422 2375 39%
c i 23.02 1501 259 0  16  107   87 29% 34 1595422 2374 39%
c i 23.68 1506 237 0  20  121   98 29% 34 1595422 2373 39%
c i 23.75 1507 229 0  21  126  102 29% 34 1595422 2372 39%
c i 23.78 1508 227 0  22  127  102 29% 34 1595422 2371 38%
c i 23.89 1508 209 0  25  144  113 29% 33 1595422 2370 38%
c i 24.03 1508 176 0  25  178  142 29% 32 1595422 2369 38%
c i 24.10 1508 173 0  25  181  144 29% 32 1595422 2368 38%
c i 24.19 1508 169 0  25  189  151 29% 32 1595422 2367 38%
c i 24.33 1508 163 0  25  197  158 29% 31 1595422 2366 38%
c i 24.34 1508 161 0  25  200  160 29% 31 1595422 2365 38%
c i 24.55 1509 139 0  25  239  183 29% 29 1595422 2364 38%
c i 24.56 1509 135 0  25  249  189 29% 29 1595422 2363 38%
c - 28.07 1445 117 1  25  300  221 29% 29 194366 2363 38%
c i 28.37 1364 111 1  26  330  244 29% 29 194366 2362 38%
c 
c  seconds     reductions  redundant   irredundant
c          MB      restarts       trail       variables
c             level   conflicts       glue         remaining
c 
c i 28.37 1364 111 1  27  332  243 29% 29 194366 2361 38%
c i 28.58 1364 101 1  31  401  294 29% 29 194366 2360 38%
c i 28.62 1364 99 1  31  412  302 29% 28 194366 2359 38%
c i 28.73 1364 89 1  31  471  336 29% 26 194366 2358 38%
c i 28.75 1364 85 1  31  495  351 29% 26 194366 2357 38%
c i 28.81 1364 84 1  31  509  363 29% 26 194366 2356 38%
c i 28.86 1364 81 1  31  537  388 29% 25 194366 2355 38%
c i 28.91 1364 80 1  31  550  398 29% 25 194366 2354 38%
c i 28.92 1364 79 1  31  552  399 29% 25 194366 2353 38%
c i 28.99 1364 78 1  33  582  426 29% 26 194366 2352 38%
c i 29.01 1364 78 1  33  587  430 29% 26 194366 2351 38%
c i 29.02 1364 78 1  33  588  430 29% 26 194366 2350 38%
c i 29.02 1364 77 1  33  593  434 29% 25 194366 2349 38%
c i 29.08 1364 77 1  36  616  454 29% 26 194366 2348 38%
c i 29.20 1364 74 1  40  656  487 29% 25 194366 2347 38%
c i 29.23 1364 73 1  40  669  497 29% 25 194366 2346 38%
c i 29.27 1364 73 1  40  677  504 29% 26 194366 2345 38%
c i 29.27 1364 73 1  40  680  506 29% 25 194366 2344 38%
c i 29.27 1364 73 1  40  681  506 29% 25 194366 2343 38%
c i 29.27 1364 73 1  40  683  506 29% 25 194366 2342 38%
c 
c  seconds    reductions  redundant   irredundant
c          MB     restarts       trail       variables
c            level   conflicts       glue         remaining
c 
c i 29.27 1364 73 1  40  684  506 29% 25 194366 2341 38%
c i 29.27 1364 73 1  40  685  506 29% 25 194366 2340 38%
c i 29.27 1364 72 1  40  686  506 29% 25 194366 2339 38%
c i 29.31 1364 71 1  40  710  524 29% 25 194366 2338 38%
c i 29.34 1364 71 1  40  717  530 29% 25 194366 2337 38%
c i 29.39 1364 70 1  41  740  550 29% 26 194366 2336 38%
c i 29.45 1364 70 1  43  748  557 29% 26 194366 2335 38%
c i 29.51 1364 69 1  43  769  574 29% 26 194366 2334 38%
c i 29.67 1364 68 1  44  813  614 29% 26 194366 2333 38%
c i 29.68 1364 68 1  44  815  615 29% 26 194366 2332 38%
c i 29.69 1364 68 1  44  817  616 29% 26 194366 2331 38%
c i 29.69 1364 68 1  44  818  616 29% 26 194366 2330 38%
c i 29.71 1364 68 1  45  826  622 29% 26 194366 2329 38%
c i 29.77 1364 67 1  50  846  639 29% 26 194366 2328 38%
c i 29.91 1364 69 1  53  872  662 29% 26 194366 2327 38%
c i 30.23 1364 69 1  60  906  692 29% 26 194366 2326 38%
c i 30.28 1364 69 1  61  913  697 29% 26 194366 2325 38%
c i 30.32 1364 69 1  63  924  706 29% 26 194366 2324 38%
c i 30.42 1364 68 1  67  954  727 29% 26 194366 2323 38%
c } 30.63 1364 68 1  73 1001  766 29% 26 194366 2323 38%
c 
c  seconds    reductions  redundant  irredundant
c          MB     restarts       trail      variables
c            level   conflicts       glue        remaining
c 
c [ 30.63 1364  0 1  73 1001  766  0% 0 194366 2323 38%
c O 30.63 1364  3 1  73 1002  767 16% 2 194366 2323 38%
c i 30.80 1364 21 1  73 1036  794 26% 16 194366 2322 38%
c i 30.81 1364 22 1  73 1040  797 27% 17 194366 2321 38%
c i 30.85 1364 27 1  73 1054  808 29% 21 194366 2320 38%
c - 31.21 1446 30 2  73 1073  702 30% 25 194246 2320 38%
c i 31.28 1446 30 2  73 1083  709 30% 26 194246 2319 38%
c i 31.31 1446 31 2  73 1102  722 31% 27 194246 2318 38%
c i 31.34 1446 32 2  73 1127  741 31% 27 194246 2317 38%
c i 31.35 1446 31 2  73 1131  744 31% 26 194246 2316 38%
c i 31.35 1446 31 2  73 1133  745 31% 26 194246 2315 38%
c i 31.36 1446 31 2  73 1143  752 31% 26 194246 2314 38%
c i 31.37 1446 30 2  73 1153  760 31% 25 194246 2313 38%
c i 31.41 1446 28 2  73 1201  793 31% 24 194246 2312 38%
c i 31.44 1446 27 2  73 1260  833 32% 23 194246 2311 38%
c i 31.46 1446 27 2  73 1302  870 32% 23 194246 2310 38%
c i 31.60 1446 27 2  73 1787 1227 31% 24 194246 2309 37%
c i 31.70 1446 28 2  74 2085 1436 31% 24 194246 2307 37%
c i 31.72 1446 28 2  74 2152 1471 31% 24 194246 2306 37%
c - 31.95 1445 28 3  74 2233 1146 31% 24 194206 2306 37%
c 
c  seconds    reductions  redundant   irredundant
c          MB     restarts       trail       variables
c            level   conflicts       glue         remaining
c 
c i 32.33 1445 27 3  74 2902 1640 54% 24 194206 2305 37%
c i 32.33 1445 27 3  74 2906 1643 54% 24 194206 2304 37%
c ] 32.36 1445 27 3  74 3001 1718 54% 24 194206 2304 37%
c { 32.36 1445 68 3  74 3001 1718 77% 26 194206 2304 37%
c F 32.37 1445 68 3  74 3003 1720 77% 26 194206 2304 37%
c i 32.52 1445 67 3  74 3036 1748 76% 26 194206 2303 37%
c i 32.52 1445 66 3  74 3037 1748 76% 26 194206 2302 37%
c i 32.94 1445 65 3  84 3160 1852 73% 26 194206 2301 37%
c i 33.10 1445 63 3  84 3247 1922 71% 26 194206 2300 37%
c i 33.11 1445 63 3  84 3252 1926 71% 26 194206 2299 37%
c i 33.13 1445 63 3  84 3264 1936 71% 26 194206 2298 37%
c i 33.15 1445 62 3  84 3282 1953 70% 26 194206 2297 37%
c i 33.18 1445 62 3  84 3299 1968 70% 26 194206 2296 37%
c i 33.24 1445 61 3  84 3341 2003 69% 25 194206 2295 37%
c i 33.29 1445 60 3  84 3363 2016 69% 25 194206 2294 37%
c i 33.29 1445 60 3  84 3364 2016 69% 25 194206 2293 37%
c i 33.47 1445 60 3  86 3443 2078 67% 25 194206 2292 37%
c i 33.47 1445 60 3  86 3448 2081 67% 25 194206 2291 37%
c i 33.49 1445 59 3  86 3474 2103 67% 25 194206 2290 37%
c i 33.85 1445 62 3  94 3542 2166 66% 26 194206 2289 37%
c 
c  seconds    reductions  redundant   irredundant
c          MB     restarts       trail       variables
c            level   conflicts       glue         remaining
c 
c i 34.04 1445 63 3 101 3582 2197 65% 26 194206 2288 37%
c - 34.34 1365 58 4 104 3779 1651 64% 24 194156 2288 37%
c i 35.16 1365 49 4 131 4488 2105 60% 23 194156 2287 37%
c i 35.51 1365 51 4 142 4535 2147 59% 24 194156 2286 37%
c i 36.09 1365 51 4 166 4648 2242 59% 25 194156 2285 37%
c i 36.56 1365 51 4 183 4825 2400 58% 24 194156 2284 37%
c i 36.86 1365 52 4 190 4888 2452 58% 25 194156 2283 37%
c i 36.89 1365 52 4 193 4899 2458 58% 25 194156 2282 37%
c d 37.47 1365 53 4 212 5000 2531 57% 25 194105 2269 37%
c 2 37.52 1365 53 4 212 5000 3791 57% 25 194073 2268 37%
c p 40.80 1365 53 4 212 5000 5882 57% 25 194073 2201 36%
c d 41.11 1365 53 4 212 5000 5676 57% 25 193469 2200 36%
c - 43.96 1366 56 5 346 5711 2276 55% 27 193469 2200 36%
c # 44.60 1366 56 5 386 6004 2493 55% 28 193469 2200 36%
c } 45.49 1366 50 5 410 7001 3270 53% 26 193469 2200 36%
c [ 45.49 1366 27 5 410 7001 3270 54% 24 193469 2200 36%
c - 45.84 1367 24 6 411 8027 2675 52% 21 193469 2200 36%
c I 46.52 1367 23 6 412 10006 3919 51% 20 193469 2200 36%
c - 47.48 1367 31 7 413 10728 3168 50% 25 193469 2200 36%
c - 49.83 1368 51 8 415 13817 4087 49% 40 193469 2200 36%
c 
c  seconds    reductions   redundant   irredundant
c          MB     restarts        trail       variables
c            level    conflicts       glue         remaining
c 
c 2 50.81 1368 55 8 415 15000 6281 49% 43 193469 2200 36%
c p 52.17 1368 55 8 415 15000 8350 49% 43 193469 2200 36%
c ] 52.25 1368 55 8 415 15001 8351 49% 43 193469 2200 36%
c { 52.25 1368 50 8 415 15001 8351 53% 26 193469 2200 36%
c B 52.32 1368 50 8 415 15008 8358 53% 26 193469 2200 36%
c - 55.42 1368 46 9 542 17292 4751 52% 25 193469 2200 36%
c s 56.04 1368 41 9 542 18783 5510 52% 24 191814 2200 36%
c v 58.77 1368 41 9 542 18783 5510 52% 24 191799 2200 36%
c t 58.86 1368 41 9 542 18783 5500 52% 24 191789 2200 36%
c e 59.27 1370 41 9 542 18783 5170 52% 24 189068 846 14%
c s 59.34 1370 41 9 542 18783 5169 52% 24 188607 846 14%
c W 62.70 1370 40 9 685 21011 6815 73% 24 188607 846 14%
c - 63.57 1370 41 10 724 21151 5146 72% 24 188607 846 14%
c - 69.09 1370 39 11 1040 25361 5438 71% 24 188607 846 14%
c F 72.32 1370 38 11 1208 28012 7412 71% 24 188607 846 14%
c - 77.37 1370 40 12 1481 29954 6384 71% 25 188607 846 14%
c p 78.33 1370 40 12 1481 30001 8221 71% 25 188607 846 14%
c } 79.17 1370 39 12 1526 31002 8972 72% 25 188607 846 14%
c [ 79.17 1370 55 12 1526 31002 8972 133% 43 188607 846 14%
c ] 79.29 1370 53 12 1526 31573 9352 129% 42 188607 846 14%
c 
c  seconds    reductions     redundant    irredundant
c          MB      restarts         trail        variables
c            level      conflicts        glue        remaining
c 
c 1 79.29 1370 53 12 1526 31573 9352 129% 42 188607 846 14%
c 
c --- [ writing output ] -----------------------------------------------------
c 
c writing simplified CNF to DIMACS file 'simp/33.cubes2682.adj.simp1'
c * 79.29 1370 53 12 1526 31573 9352 129% 42 188607 846 14%
c opening file to write 'simp/33.cubes2682.adj.simp1'
c writing 'p cnf 6160 188607' header
c closing file 'simp/33.cubes2682.adj.simp1'
c after writing 82061239 bytes 78.3 MB
c wrote 188607 clauses in 0.57 seconds process time
c 
c --- [ writing extension ] --------------------------------------------------
c 
c writing extension stack to 'simp/33.cubes2682.adj.ext1'
c opening file to write 'simp/33.cubes2682.adj.ext1'
c closing file 'simp/33.cubes2682.adj.ext1'
c after writing 88451 bytes 0.1 MB
c wrote 3938 witnesses in 0.00 seconds process time
c 
c --- [ result ] -------------------------------------------------------------
c 
s SATISFIABLE
c 
c --- [ run-time profiling ] -------------------------------------------------
c 
c process time taken by individual solving procedures
c (percentage relative to process time for solving)
c 
c        51.34   83.64% search
c        42.64   69.45% unstable
c        17.90   29.16% parse
c        10.04   16.36% simplify
c         7.18   11.70% stable
c         5.54    9.02% probe
c         2.80    4.55% vivify
c         1.32    2.15% lucky
c         0.77    1.25% elim
c         0.21    0.34% walk
c         0.15    0.25% subsume
c         0.08    0.14% ternary
c   =================================
c        61.39   76.86% solve
c 
c last line shows process time for solving
c (percentage relative to total process time)
c 
c --- [ statistics ] ---------------------------------------------------------
c 
c chronological:              6691        21.19 %  of conflicts
c conflicts:                 31573       514.33    per second
c decisions:                136977      2231.38    per second
c eliminated:                 1354        21.98 %  of all variables
c fixed:                       802        13.02 %  of all variables
c learned:                   30850        97.71 %  per conflict
c learned_lits:            5602879       100.00 %  learned literals
c minimized:                     0         0.00 %  learned literals
c shrunken:                3145603        56.14 %  learned literals
c minishrunken:             453654         8.10 %  learned literals
c propagations:            3734141         0.06 M  per second
c reduced:                   15555        49.27 %  per conflict
c rephased:                      7      4510.43    interval
c restarts:                   1526        20.69    interval
c stabilizing:                   3        33.48 %  of conflicts
c substituted:                  14         0.23 %  of all variables
c subsumed:                   9523         0.29 %  of all clauses
c strengthened:               4080         0.12 %  of all clauses
c ternary:                    2932         0.62 %  of resolved
c vivified:                     29         0.00 %  of all clauses
c walked:                        1     31573.00    interval
c weakened:                   3136         3.01    average size
c 
c seconds are measured in process time for solving
c 
c --- [ resources ] ----------------------------------------------------------
c 
c total process time since initialization:        79.86    seconds
c total real time since initialization:           81.57    seconds
c maximum resident set size of process:         1527.13    MB
c 
c --- [ shutting down ] ------------------------------------------------------
c 
c exit 10
WARNING! DIMACS header mismatch: wrong number of variables.
============================[ Problem Statistics ]=============================
|                                                                             |
|  Number of variables:          3244                                         |
|  Number of clauses:          188607                                         |
|  Parse time:                   1.23 s                                       |
|  Simplification time:          0.06 s                                       |
|                                                                             |
============================[ Search Statistics ]====================================================
| Conflicts |          ORIGINAL         |          LEARNT          | Num Sols |      SUBGRAPHS      |
|           |    Vars  Clauses Literals |    Limit  Clauses Lit/Cl |          | Canonical Noncanon. |
=====================================================================================================
|       104 |    3152   188611 17824246 |     2000      104    172 |        0 |        14         4 |
|       260 |    3152   188617 17824454 |     2000      260    142 |        0 |        23        10 |
|       488 |    3152   188620 17824555 |     2000      488    131 |        0 |        25        13 |
|      1116 |    3152   188911 17829612 |     2000     1116     92 |        0 |       102       304 |
|      1962 |    3152   189251 17835783 |     2000     1962     85 |        0 |       192       644 |
|      2733 |    3152   189263 17836495 |     3602     1735     74 |        0 |       201       656 |
|      3927 |    3152   189318 17837798 |     3602     2929     88 |        0 |       220       711 |
|      5943 |    3152   189626 17842983 |     5001     3144     57 |        0 |       382      1019 |
|      8581 |    3152   189702 17844298 |     6307     3288     53 |        0 |       417      1095 |
|     12693 |    3152   189970 17849983 |     7556     4249     55 |        0 |       530      1363 |
|     18642 |    3152   190153 17854088 |     8778     6420     64 |        0 |       609      1546 |
|     27724 |    3152   190586 17861424 |    11202     6126     54 |        0 |       726      1979 |
|     40966 |    3152   190854 17866529 |    13609     7575     55 |        0 |       860      2247 |
|     61842 |    3152   192269 17889976 |    16006    14248     73 |        0 |      1212      3662 |
|     93319 |    3152   194554 17929570 |    20809    10128     33 |        0 |      1861      5947 |
|    138181 |    3152   195627 17948927 |    24413    21994     69 |        0 |      2288      7020 |
|    206154 |    3152   197916 17985760 |    30410    22964     65 |        0 |      3111      9309 |
|    309273 |    3152   202509 18063954 |    37618    25891     56 |        0 |      5369     13902 |
|    459879 |    3152   205326 18123598 |    46019    32298     60 |        2 |      6333     16717 |
|    690541 |    3152   214305 18297304 |    56816    34357     43 |        2 |      9591     25696 |
|   1033481 |    3152   224720 18506813 |    68813    66294     73 |        2 |     14080     36111 |
|   1550022 |    3152   242473 18864897 |    85616    46638     37 |        2 |     21080     53864 |
|   2321855 |    3152   266124 19377470 |   104821    61676     46 |       10 |     32494     77507 |
|   3470900 |    3152   292895 19928429 |   127617   112517     68 |       10 |     42571    104278 |
|   5185576 |    3152   324160 20622274 |   156420   130396     62 |       12 |     54170    135541 |
|   7730906 |    3145   323553 20621328 |   191215   164321     69 |       14 |     61200    155753 |
|  11531286 |    3145   336258 20883757 |   234426   145112     50 |       21 |     67087    168451 |
=====================================================================================================
Number of solutions   : 41
Canonical subgraphs   : 75643          (15 /sec)
          order  3    : 1              (125000 /sec)
          order  4    : 1              (333333 /sec)
          order  5    : 1              (111111 /sec)
          order  6    : 1              (25641 /sec)
          order  7    : 1              (4115 /sec)
          order  8    : 2              (831 /sec)
          order  9    : 6              (267 /sec)
          order 10    : 26             (84 /sec)
          order 11    : 110            (30 /sec)
          order 12    : 597            (21 /sec)
          order 13    : 3537           (18 /sec)
          order 14    : 6015           (24 /sec)
          order 15    : 22763          (17 /sec)
          order 16    : 24804          (12 /sec)
          order 17    : 11529          (14 /sec)
          order 18    : 2325           (11 /sec)
          order 19    : 1505           (11 /sec)
          order 20    : 1176           (12 /sec)
          order 21    : 1202           (12 /sec)
          order 22    : 41             (1 /sec)
Noncanonical subgraphs: 189086         (235 /sec)
          order  3    : 0              (-nan /sec)
          order  4    : 0              (-nan /sec)
          order  5    : 0              (-nan /sec)
          order  6    : 0              (-nan /sec)
          order  7    : 0              (-nan /sec)
          order  8    : 0              (-nan /sec)
          order  9    : 0              (-nan /sec)
          order 10    : 0              (-nan /sec)
          order 11    : 0              (-nan /sec)
          order 12    : 0              (-nan /sec)
          order 13    : 7496           (6431 /sec)
          order 14    : 68644          (890 /sec)
          order 15    : 29291          (948 /sec)
          order 16    : 26886          (497 /sec)
          order 17    : 54587          (106 /sec)
          order 18    : 941            (54 /sec)
          order 19    : 7              (6250 /sec)
          order 20    : 4              (438 /sec)
          order 21    : 2              (1195 /sec)
Canonicity checking   : 5211.18 s
Noncanonicity checking: 803.909 s
Total canonicity time : 6015.08 s
database reductions   : 229
restarts              : 24573
conflicts             : 16249767       (1280 /sec)
decisions             : 19941400       (0.00 % random) (1571 /sec)
propagations          : 683931094      (53890 /sec)
conflict literals     : 1797674223     (54.79 % deleted)
actual reward         : 0.295729
Memory used           : 415.00 MB
CPU time              : 12691.2 s

UNSATISFIABLE
